7
2147483647 18 23 24 62 19 73 
18 2147483647 41 59 65 65 100 
23 41 2147483647 100 41 88 39 
24 59 100 2147483647 99 27 98 
62 65 41 99 2147483647 21 34 
19 65 88 27 21 2147483647 94 
73 100 39 98 34 94 2147483647 
